
#######################################################################
#
#                 Cambridge Crystallographic Data Centre
#                                CCDC
#
#######################################################################
#
# If this CIF has been generated from an entry in the Cambridge
# Structural Database, then it will include bibliographic, chemical,
# crystal, experimental, refinement or atomic coordinate data resulting
# from the CCDC's data processing and validation procedures.
#
#######################################################################

data_CSD_CIF_BIYRIM01
_audit_creation_date 2019-04-04
_audit_creation_method CSD-ConQuest-V1
_database_code_CSD BIYRIM01
_database_code_depnum_ccdc_archive 'CCDC 1029339'
_chemical_formula_sum 'C18 H14 N2 O4'
_chemical_formula_moiety
;
C18 H14 N2 O4
;
_journal_coden_Cambridge 1096
_journal_volume 31
_journal_year 2019
_journal_page_first 1391
_journal_name_full 'Chem.Mater. '
loop_
_publ_author_name
"R.Devarapalli"
"S.B.Kadambi"
"Chun-Teh Chen"
"G.R.Krishna"
"B.R.Kammari"
"M.J.Buehler"
"U.Ramamurty"
"C.Malla Reddy"
_chemical_name_systematic
;
2,7-diethylbenzo[lmn][3,8]phenanthroline-1,3,6,8(2H,7H)-tetrone
;
_chemical_name_common
;
N,N'-bis(ethyl)-1,4,5,8-naphthalenediimide
;
_cell_volume    686.320
_exptl_crystal_colour 'light yellow'
_exptl_crystal_density_diffrn 1.56
_exptl_crystal_description 'needle'
_diffrn_ambient_temperature 100
#These two values have been output from a single CSD field.
_refine_ls_R_factor_gt 0.0748
_refine_ls_wR_factor_gt 0.0748
_symmetry_cell_setting monoclinic
_symmetry_space_group_name_H-M 'P 21/c'
_symmetry_Int_Tables_number 14
loop_
_symmetry_equiv_pos_site_id
_symmetry_equiv_pos_as_xyz
1 x,y,z
2 -x,1/2+y,1/2-z
3 -x,-y,-z
4 x,-1/2-y,-1/2+z
_cell_length_a 4.844(4)
_cell_length_b 7.736(6)
_cell_length_c 18.315(13)
_cell_angle_alpha 90
_cell_angle_beta 90.124(19)
_cell_angle_gamma 90
_cell_formula_units_Z 2
loop_
_atom_type_symbol
_atom_type_radius_bond
C 0.68
H 0.23
N 0.68
O 0.68
loop_
_atom_site_label
_atom_site_type_symbol
_atom_site_fract_x
_atom_site_fract_y
_atom_site_fract_z
C1 C 0.1925(6) 0.1821(4) 0.12748(15)
C2 C 0.2621(6) 0.0413(3) 0.07663(14)
C3 C 0.4694(6) 0.0665(3) 0.02478(14)
C4 C 0.6199(6) 0.2219(3) 0.02223(15)
C5 C 0.5653(6) 0.3589(4) 0.07562(15)
C6 C 0.1206(6) -0.1123(4) 0.07924(15)
H1 H -0.01570 -0.12880 0.11430
C7 C 0.8197(6) 0.2438(4) -0.02952(16)
H2 H 0.91680 0.34740 -0.03160
C8 C 0.3011(6) 0.4633(4) 0.18104(15)
H3 H 0.10410 0.47530 0.18890
H4 H 0.37190 0.57390 0.16450
C9 C 0.4403(7) 0.4139(4) 0.25202(16)
H5 H 0.36180 0.30820 0.27000
H6 H 0.41310 0.50400 0.28730
H7 H 0.63440 0.39810 0.24390
N1 N 0.3514(5) 0.3311(3) 0.12467(13)
O1 O 0.0080(4) 0.1701(3) 0.17164(11)
O2 O 0.7006(4) 0.4906(2) 0.07822(10)
#END
